(set-info :Origin "This instance was generated by: BanditFuzz-- an RL fuzzer for SMT solvers" )
(set-info :Author "Joe Scott, Fed Mora, Vijay Ganesh" )
(set-info :Contact "Joe Scott, joseph.scott@uwaterloo.ca")
(set-logic QF_BV)
(declare-const bool_0 Bool)
(declare-const bool_1 Bool)
(declare-const bool_2 Bool)
(declare-const bool_3 Bool)
(declare-const bool_4 Bool)
(declare-const bv_0 (_ BitVec 32))
(declare-const bv_1 (_ BitVec 32))
(declare-const bv_2 (_ BitVec 32))
(declare-const bv_3 (_ BitVec 32))
(declare-const bv_4 (_ BitVec 32))
(assert (bvule (bvsdiv (bvnor bv_1 #x4b7d7fbe ) (bvsub bv_3 #x0d17f40b )) (bvashr (bvnor #x7dec660d  #xa0d8bebd ) (bvor bv_4 #xf1c41f67 ))))
(assert (or (=> (bvuge #x23ef56cd  bv_2) (xor bool_0 true)) (bvult (bvashr bv_1 #xc3b5b8a0 ) (bvsub #x83a802ee  bv_2))))
(assert (bvult (bvashr (bvsdiv bv_2 #x643a375d ) (bvand bv_0 bv_3)) (bvshl (bvnand #x4353fed4  #x2755c3fe ) (bvsmod bv_1 bv_3))))
(assert (bvsle (bvashr (bvurem bv_0 bv_4) (bvsrem #xc268750f  #xe924c387 )) (bvsrem (bvnor bv_4 #xf1c1803a ) (bvudiv bv_0 bv_2))))
(assert (bvsgt (bvadd (bvlshr #x5313946f  bv_0) (bvxor bv_4 bv_3)) (bvshl (bvsub #xf0edf7fa  #x08916c9e ) (bvand bv_4 bv_0))))
(check-sat)
(exit)
